mixintcount/benchmarks/random_v2l/3_3_141.smt2
(set-logic QF_LIA)
(set-info :ran/ran2.smt2)
(set-info :smt-lib-version 2.0)
(declare-fun x1 () Int)
(declare-fun x2 () Int)
(declare-fun x3 () Int)
(assert (<= (+ (* (- 10) x1) (* 3 x2) (* (- 10) x3) ) 113))
(assert (<= (+ (* 5 x1) (* 8 x2) (* (- 9) x3) ) 138))
(assert (<= (+ (* 0 x1) (* 6 x2) (* (- 10) x3) ) (- 85)))
(assert (<= (+ (* 8 x1) (* 0 x2) (* (- 6) x3) ) 66))
(assert (<= (+ (* (- 6) x1) (* 3 x2) (* (- 5) x3) ) (- 37)))
(assert (<= (+ (* (- 9) x1) (* 5 x2) (* 10 x3) ) (- 82)))
(assert (<= (+ (* 1 x1) (* 0 x2) (* 0 x3) ) 141))
(assert (<= (+ (* (- 1) x1) (* 0 x2) (* 0 x3) ) 141))
(assert (<= (+ (* 0 x1) (* 1 x2) (* 0 x3) ) 141))
(assert (<= (+ (* 0 x1) (* (- 1) x2) (* 0 x3) ) 141))
(assert (<= (+ (* 0 x1) (* 0 x2) (* 1 x3) ) 141))
(assert (<= (+ (* 0 x1) (* 0 x2) (* (- 1) x3) ) 141))
