mixintcount/benchmarks/random_v2l/3_3_141.in
12 5
#	x1	x2	x3;		0 = Real; 1 = Integer
	1	1	1
1	-10	3	-10	113
1	5	8	-9	138
1	0	6	-10	-85
1	8	0	-6	66
1	-6	3	-5	-37
1	-9	5	10	-82
1	1	0	0	141
1	-1	0	0	141
1	0	1	0	141
1	0	-1	0	141
1	0	0	1	141
1	0	0	-1	141
